c Lingeling SAT Solver
c 
c Version azf 92032848c138b2f33629ad24394d60a3787a1046
c 
c Copyright (C) 2010-2014 Armin Biere JKU Linz Austria.
c All rights reserved.
c 
c released Don Mai 22 22:08:00 CEST 2014
c compiled Mon Oct  6 05:55:43 PDT 2014
c 
c gcc (Ubuntu 4.8.2-19ubuntu1) 4.8.2
c -Wall -O3 -DNDBLSCR -DNLGLOG -DNDEBUG -DNCHKSOL -DNLGLPICOSAT -DNLGLDRUPLIG
c -DNLGLYALSAT
c Linux ubuntu 3.13.0-32-generic x86_64
c 
c reading input file benchmark-sat/translations/gc-4-Insertions_4-3.cnf
c no embedded options
c found 'p cnf 1425 7285' header
c read 1425 variables, 7285 clauses, 15045 literals in 0.00 seconds
c 
c  seconds         irredundant          redundant clauses agility   height
c          variables clauses conflicts large ternary binary    glue         MB
c 
c S    0.0    1425     7285         0       0      0     0   0  0.0   0.0    0
c S    1.0     950     5385     22377    4235      0   475  24  8.5  17.1    1
c S    2.0     949     5385     45614    7207     15   477  23  8.4  15.1    2
c 
c  seconds         irredundant          redundant clauses agility   height
c          variables clauses conflicts large ternary binary    glue         MB
c 
s UNSATISFIABLE
c
c    0.153   6% simplifying
c    2.574  94% search
c ==================================
c    2.726 100% all
c 
c 122446 decisions, 44911.2 decisions/sec
c 61353 conflicts, 22503.3 conflicts/sec
c 4354041 propagations, 1.6 megaprops/sec
c 2.7 seconds, 2.7 MB
